c This is QMaxSAT 2017 based on 14.07
c This is Glucose 3.0
c This is MiniSat 2.2.0
c WARNING: for repeatability, setting FPU to use double precision
c card = mrwto, comp = 0, pmodel = 0, narr = 20, mct = 99, verb = 0
cr firstCPXsol 0 0 0
c top = 824631
c |  Number of variables:    27848                                            |
c |  Number of clauses:      2907847                                          |
c |  Weight of hard clauses: 824631                                           |
c |  Number of soft clauses: 268520                                           |
c |  Number of unit soft clauses: 0                                           |
c |  Maximum Cardinality (by unit): 25510760     (0           )               |
c last restart ## conflicts  :  1 6916 
o 5061 | cpuTime 0.481575 s
c Sum of weights = 1275538
c A number of soft clauses remained = 13426
c MRWTO encoding for Pseudo-Boolean Constraints
c sizeMax=5061
c No.0 Divisor=9	generated by pow1
c No.1 Divisor=9	generated by pow1
c No.2 Divisor=9	generated by pow1
c No.3 Divisor=9	generated by pow1
c p0= 9	p1= 9	p2= 9	p3= 9	
c number of digits = 5
c linkingVar[0].size = 9, linkingVar[1].size = 9, linkingVar[2].size = 9, linkingVar[3].size = 7, linkingVar[4].size = 1, 
c Pseudo-Boolean Constraints: 300137 variables and 2244633 clauses
c Sum of weights = 1275538
c A number of soft clauses remained = 13426
c MRWTO encoding for Pseudo-Boolean Constraints
c sizeMax=5061
c No.0 Divisor=9	generated by pow1
c No.1 Divisor=9	generated by pow1
c No.2 Divisor=9	generated by pow1
c No.3 Divisor=9	generated by pow1
c p0= 9	p1= 9	p2= 9	p3= 9	
c number of digits = 5
c linkingVar[0].size = 9, linkingVar[1].size = 9, linkingVar[2].size = 9, linkingVar[3].size = 7, linkingVar[4].size = 1, 
c Pseudo-Boolean Constraints: 300137 variables and 2244633 clauses
c Sum of weights = 1275538
c A number of soft clauses remained = 13426
c MRWTO encoding for Pseudo-Boolean Constraints
c sizeMax=5061
c No.0 Divisor=9	generated by pow1
c No.1 Divisor=9	generated by pow1
c No.2 Divisor=9	generated by pow1
c No.3 Divisor=9	generated by pow1
c p0= 9	p1= 9	p2= 9	p3= 9	
c number of digits = 5
c linkingVar[0].size = 9, linkingVar[1].size = 9, linkingVar[2].size = 9, linkingVar[3].size = 7, linkingVar[4].size = 1, 
c Pseudo-Boolean Constraints: 300137 variables and 2244633 clauses
c Sum of weights = 1275538
c A number of soft clauses remained = 13426
c MRWTO encoding for Pseudo-Boolean Constraints
c sizeMax=5061
c No.0 Divisor=9	generated by pow1
c No.1 Divisor=9	generated by pow1
c No.2 Divisor=9	generated by pow1
c No.3 Divisor=9	generated by pow1
c p0= 9	p1= 9	p2= 9	p3= 9	
c number of digits = 5
c linkingVar[0].size = 9, linkingVar[1].size = 9, linkingVar[2].size = 9, linkingVar[3].size = 7, linkingVar[4].size = 1, 
c Pseudo-Boolean Constraints: 300137 variables and 2244633 clauses
c Sum of weights = 1275538
c A number of soft clauses remained = 13426
c MRWTO encoding for Pseudo-Boolean Constraints
c sizeMax=5061
c No.0 Divisor=9	generated by pow1
c No.1 Divisor=9	generated by pow1
c No.2 Divisor=9	generated by pow1
c No.3 Divisor=9	generated by pow1
c p0= 9	p1= 9	p2= 9	p3= 9	
c number of digits = 5
c linkingVar[0].size = 9, linkingVar[1].size = 9, linkingVar[2].size = 9, linkingVar[3].size = 7, linkingVar[4].size = 1, 
c Pseudo-Boolean Constraints: 300137 variables and 2244633 clauses
c Sum of weights = 1275538
c A number of soft clauses remained = 13426
c MRWTO encoding for Pseudo-Boolean Constraints
c sizeMax=5061
c No.0 Divisor=9	generated by pow1
c No.1 Divisor=9	generated by pow1
c No.2 Divisor=9	generated by pow1
c No.3 Divisor=9	generated by pow1
c p0= 9	p1= 9	p2= 9	p3= 9	
c number of digits = 5
c linkingVar[0].size = 9, linkingVar[1].size = 9, linkingVar[2].size = 9, linkingVar[3].size = 7, linkingVar[4].size = 1, 
c Pseudo-Boolean Constraints: 300137 variables and 2244633 clauses
c Sum of weights = 1275538
c A number of soft clauses remained = 13426
c MRWTO encoding for Pseudo-Boolean Constraints
c sizeMax=5061
c No.0 Divisor=9	generated by pow1
c No.1 Divisor=9	generated by pow1
c No.2 Divisor=9	generated by pow1
c No.3 Divisor=9	generated by pow1
c p0= 9	p1= 9	p2= 9	p3= 9	
c number of digits = 5
c linkingVar[0].size = 9, linkingVar[1].size = 9, linkingVar[2].size = 9, linkingVar[3].size = 7, linkingVar[4].size = 1, 
c Pseudo-Boolean Constraints: 300137 variables and 2244633 clauses
c Sum of weights = 1275538
c A number of soft clauses remained = 13426
c MRWTO encoding for Pseudo-Boolean Constraints
c sizeMax=5061
c No.0 Divisor=9	generated by pow1
c No.1 Divisor=9	generated by pow1
c No.2 Divisor=9	generated by pow1
c No.3 Divisor=9	generated by pow1
c p0= 9	p1= 9	p2= 9	p3= 9	
c number of digits = 5
c linkingVar[0].size = 9, linkingVar[1].size = 9, linkingVar[2].size = 9, linkingVar[3].size = 7, linkingVar[4].size = 1, 
c Pseudo-Boolean Constraints: 300137 variables and 2244633 clauses
c Sum of weights = 1275538
c A number of soft clauses remained = 13426
c MRWTO encoding for Pseudo-Boolean Constraints
c sizeMax=5061
c No.0 Divisor=9	generated by pow1
c No.1 Divisor=9	generated by pow1
c No.2 Divisor=9	generated by pow1
c No.3 Divisor=9	generated by pow1
c p0= 9	p1= 9	p2= 9	p3= 9	
c number of digits = 5
c linkingVar[0].size = 9, linkingVar[1].size = 9, linkingVar[2].size = 9, linkingVar[3].size = 7, linkingVar[4].size = 1, 
c Pseudo-Boolean Constraints: 300137 variables and 2244633 clauses
c Sum of weights = 1275538
c A number of soft clauses remained = 13426
c MRWTO encoding for Pseudo-Boolean Constraints
c sizeMax=5061
c No.0 Divisor=9	generated by pow1
c No.1 Divisor=9	generated by pow1
c No.2 Divisor=9	generated by pow1
c No.3 Divisor=9	generated by pow1
c p0= 9	p1= 9	p2= 9	p3= 9	
c number of digits = 5
c linkingVar[0].size = 9, linkingVar[1].size = 9, linkingVar[2].size = 9, linkingVar[3].size = 7, linkingVar[4].size = 1, 
c Pseudo-Boolean Constraints: 300137 variables and 2244633 clauses
c Sum of weights = 1275538
c A number of soft clauses remained = 13426
c MRWTO encoding for Pseudo-Boolean Constraints
c sizeMax=5061
c No.0 Divisor=9	generated by pow1
c No.1 Divisor=9	generated by pow1
c No.2 Divisor=9	generated by pow1
c No.3 Divisor=9	generated by pow1
c p0= 9	p1= 9	p2= 9	p3= 9	
c number of digits = 5
c linkingVar[0].size = 9, linkingVar[1].size = 9, linkingVar[2].size = 9, linkingVar[3].size = 7, linkingVar[4].size = 1, 
c Pseudo-Boolean Constraints: 300137 variables and 2244633 clauses
c Sum of weights = 1275538
c A number of soft clauses remained = 13426
c MRWTO encoding for Pseudo-Boolean Constraints
c sizeMax=5061
c No.0 Divisor=9	generated by pow1
c No.1 Divisor=9	generated by pow1
c No.2 Divisor=9	generated by pow1
c No.3 Divisor=9	generated by pow1
c p0= 9	p1= 9	p2= 9	p3= 9	
c number of digits = 5
c linkingVar[0].size = 9, linkingVar[1].size = 9, linkingVar[2].size = 9, linkingVar[3].size = 7, linkingVar[4].size = 1, 
c Pseudo-Boolean Constraints: 300137 variables and 2244633 clauses
c Sum of weights = 1275538
c A number of soft clauses remained = 13426
c MRWTO encoding for Pseudo-Boolean Constraints
c sizeMax=5061
c No.0 Divisor=9	generated by pow1
c No.1 Divisor=9	generated by pow1
c No.2 Divisor=9	generated by pow1
c No.3 Divisor=9	generated by pow1
c p0= 9	p1= 9	p2= 9	p3= 9	
c number of digits = 5
c linkingVar[0].size = 9, linkingVar[1].size = 9, linkingVar[2].size = 9, linkingVar[3].size = 7, linkingVar[4].size = 1, 
c Pseudo-Boolean Constraints: 300137 variables and 2244633 clauses
c Sum of weights = 1275538
c A number of soft clauses remained = 13426
c MRWTO encoding for Pseudo-Boolean Constraints
c sizeMax=5061
c No.0 Divisor=9	generated by pow1
c No.1 Divisor=9	generated by pow1
c No.2 Divisor=9	generated by pow1
c No.3 Divisor=9	generated by pow1
c p0= 9	p1= 9	p2= 9	p3= 9	
c number of digits = 5
c linkingVar[0].size = 9, linkingVar[1].size = 9, linkingVar[2].size = 9, linkingVar[3].size = 7, linkingVar[4].size = 1, 
c Pseudo-Boolean Constraints: 300137 variables and 2244633 clauses
c Sum of weights = 1275538
c A number of soft clauses remained = 13426
c MRWTO encoding for Pseudo-Boolean Constraints
c sizeMax=5061
c No.0 Divisor=9	generated by pow1
c No.1 Divisor=9	generated by pow1
c No.2 Divisor=9	generated by pow1
c No.3 Divisor=9	generated by pow1
c p0= 9	p1= 9	p2= 9	p3= 9	
c number of digits = 5
c linkingVar[0].size = 9, linkingVar[1].size = 9, linkingVar[2].size = 9, linkingVar[3].size = 7, linkingVar[4].size = 1, 
c Pseudo-Boolean Constraints: 300137 variables and 2244633 clauses
c Sum of weights = 1275538
c A number of soft clauses remained = 13426
c MRWTO encoding for Pseudo-Boolean Constraints
c sizeMax=5061
c No.0 Divisor=9	generated by pow1
c No.1 Divisor=9	generated by pow1
c No.2 Divisor=9	generated by pow1
c No.3 Divisor=9	generated by pow1
c p0= 9	p1= 9	p2= 9	p3= 9	
c number of digits = 5
c linkingVar[0].size = 9, linkingVar[1].size = 9, linkingVar[2].size = 9, linkingVar[3].size = 7, linkingVar[4].size = 1, 
c Pseudo-Boolean Constraints: 300137 variables and 2244633 clauses
c Sum of weights = 1275538
c A number of soft clauses remained = 13426
c MRWTO encoding for Pseudo-Boolean Constraints
c sizeMax=5061
c No.0 Divisor=9	generated by pow1
c No.1 Divisor=9	generated by pow1
c No.2 Divisor=9	generated by pow1
c No.3 Divisor=9	generated by pow1
c p0= 9	p1= 9	p2= 9	p3= 9	
c number of digits = 5
c linkingVar[0].size = 9, linkingVar[1].size = 9, linkingVar[2].size = 9, linkingVar[3].size = 7, linkingVar[4].size = 1, 
c Pseudo-Boolean Constraints: 300137 variables and 2244633 clauses
c Sum of weights = 1275538
c A number of soft clauses remained = 13426
c MRWTO encoding for Pseudo-Boolean Constraints
c sizeMax=5061
c No.0 Divisor=9	generated by pow1
c No.1 Divisor=9	generated by pow1
c No.2 Divisor=9	generated by pow1
c No.3 Divisor=9	generated by pow1
c p0= 9	p1= 9	p2= 9	p3= 9	
c number of digits = 5
c linkingVar[0].size = 9, linkingVar[1].size = 9, linkingVar[2].size = 9, linkingVar[3].size = 7, linkingVar[4].size = 1, 
c Pseudo-Boolean Constraints: 300137 variables and 2244633 clauses
c Sum of weights = 1275538
c A number of soft clauses remained = 13426
c MRWTO encoding for Pseudo-Boolean Constraints
c sizeMax=5061
c No.0 Divisor=9	generated by pow1
c No.1 Divisor=9	generated by pow1
c No.2 Divisor=9	generated by pow1
c No.3 Divisor=9	generated by pow1
c p0= 9	p1= 9	p2= 9	p3= 9	
c number of digits = 5
c linkingVar[0].size = 9, linkingVar[1].size = 9, linkingVar[2].size = 9, linkingVar[3].size = 7, linkingVar[4].size = 1, 
c Pseudo-Boolean Constraints: 300137 variables and 2244633 clauses
c Sum of weights = 1275538
c A number of soft clauses remained = 13426
c MRWTO encoding for Pseudo-Boolean Constraints
c sizeMax=5061
c No.0 Divisor=9	generated by pow1
c No.1 Divisor=9	generated by pow1
c No.2 Divisor=9	generated by pow1
c No.3 Divisor=9	generated by pow1
c p0= 9	p1= 9	p2= 9	p3= 9	
c number of digits = 5
c linkingVar[0].size = 9, linkingVar[1].size = 9, linkingVar[2].size = 9, linkingVar[3].size = 7, linkingVar[4].size = 1, 
c Pseudo-Boolean Constraints: 300137 variables and 2244633 clauses
c last restart ## conflicts  :  358 58562 
o 2370 | cpuTime 17.9195 s
c last restart ## conflicts  :  244 242139 
o 1263 | cpuTime 52.2843 s
c last restart ## conflicts  :  351 79084 
o 844 | cpuTime 343.704 s
c last restart ## conflicts  :  403 81841 
o 826 | cpuTime 2741.58 s
s UNKNOWN
c Search is stopped by a limit (maybe time-limit)
cr positiVarArr: [ | 89(1->70) | 157(1->20) | 302(1->47) | 426(1->53) | 541(1->50) | 684(1->75) | 824(1->97) | 908(1->63) | 965(1->2) | 1094(1->13) | 1272(1->73) | 1396(1->79) | 1441(1->6) | 1621(1->68) | 1709(1->38) | 1880(1->91) | 1952(1->45) | 2086(1->61) | 2199(1->56) | 2318(1->57) | 2377(2->1) | 2484(3->1) | 2629(4->14) | 2740(5->7) | 2878(6->27) | 2977(7->8) | 3126(8->39) | 3190(9->1) | 3318(10->1) | 3517(11->76) | 3545(12->1) | 3681(13->4) | 3789(14->1) | 3912(15->1) | 4057(16->26) | 4184(17->35) | 4270(18->3) | 4367(19->1) | 4592(20->89) | 4621(21->1) | 4728(22->1) | 4899(23->42) | 5016(24->41) | 5116(25->23) | 5228(26->17) | 5344(27->15) | 5468(28->21) | 5587(29->22) | 5711(30->28) | 5894(31->93) | 5963(32->44) | 6027(33->1) | 6138(34->1) | 6306(35->33) | 6475(36->84) | 6545(37->36) | 6652(38->25) | 6733(39->1) | 6879(40->16) | 7018(41->37) | 7092(42->1) | 7213(43->1) | 7378(44->43) | 7507(45->54) | 7642(46->71) | 7738(47->49) | 7901(48->94) | 7916(49->1) | 8107(50->64) | 8153(51->1) | 8330(52->51) | 8449(53->52) | 8595(54->80) | 8691(55->58) | 8828(56->77) | 8893(57->24) | 9046(58->59) | 9153(59->48) | 9263(60->40) | 9403(61->62) | 9477(62->18) | 9609(63->32) | 9793(64->98) | 9843(65->30) | 9986(66->55) | 10061(67->12) | 10239(68->72) | 10314(69->29) | 10463(70->60) | 10588(71->67) | 10721(72->82) | 10768(73->11) | 10894(74->19) | 10998(75->5) | 11198(76->87) | 11298(77->69) | 11437(78->90) | 11561(79->96) | 11664(80->81) | 11767(81->66) | 11914(82->95) | 11921(83->1) | 12056(84->1) | 12207(85->34) | 12322(86->31) | 12494(87->85) | 12592(88->65) | 12642(89->1) | 12773(90->10) | 12959(91->78) | 13008(92->9) | 13200(93->83) | 13327(94->92) | 13439(95->86) | 13570(96->99) | 13635(97->46) | 13795(98->88) | 13899(99->74) | ]
cr the 1-th chain: [ 1->70->60->40->16->26->17->35->33->1 ] (#non-depot=8) {#cumul.=9}
cr the 2-th chain: [ 1->20->89->1 ] (#non-depot=2) {#cumul.=11}
cr the 3-th chain: [ 1->47->49->1 ] (#non-depot=2) {#cumul.=13}
cr the 4-th chain: [ 1->53->52->51->1 ] (#non-depot=3) {#cumul.=16}
cr the 5-th chain: [ 1->50->64->98->88->65->30->28->21->1 ] (#non-depot=8) {#cumul.=24}
cr the 6-th chain: [ 1->75->5->7->8->39->1 ] (#non-depot=5) {#cumul.=29}
cr the 7-th chain: [ 1->97->46->71->67->12->1 ] (#non-depot=5) {#cumul.=34}
cr the 8-th chain: [ 1->63->32->44->43->1 ] (#non-depot=4) {#cumul.=38}
cr the 9-th chain: [ 1->2->1 ] (#non-depot=1) {#cumul.=39}
cr the 10-th chain: [ 1->13->4->14->1 ] (#non-depot=3) {#cumul.=42}
cr the 11-th chain: [ 1->73->11->76->87->85->34->1 ] (#non-depot=6) {#cumul.=48}
cr the 12-th chain: [ 1->79->96->99->74->19->1 ] (#non-depot=5) {#cumul.=53}
cr the 13-th chain: [ 1->6->27->15->1 ] (#non-depot=3) {#cumul.=56}
cr the 14-th chain: [ 1->68->72->82->95->86->31->93->83->1 ] (#non-depot=8) {#cumul.=64}
cr the 15-th chain: [ 1->38->25->23->42->1 ] (#non-depot=4) {#cumul.=68}
cr the 16-th chain: [ 1->91->78->90->10->1 ] (#non-depot=4) {#cumul.=72}
cr the 17-th chain: [ 1->45->54->80->81->66->55->58->59->48->94->92->9->1 ] (#non-depot=12) {#cumul.=84}
cr the 18-th chain: [ 1->61->62->18->3->1 ] (#non-depot=4) {#cumul.=88}
cr the 19-th chain: [ 1->56->77->69->29->22->1 ] (#non-depot=5) {#cumul.=93}
cr the 20-th chain: [ 1->57->24->41->37->36->84->1 ] (#non-depot=6) {#cumul.=99}
c Latest Answer = 0 by 5 loops
c restarts              : 8061
c conflicts             : 1152636        (320 /sec)
c decisions             : 171467880      (0.00 % random) (47651 /sec)
c propagations          : 30732189545    (8540449 /sec)
c conflict literals     : 177107450      (26.34 % deleted)
c Memory used           : 5105.00 MB
c CPU time              : 3598.43 s
